c File: data_files/evolved_graphs/g3254.col
c
c Auto generated graph
c
p edge 100 742
e 1 4
e 1 23
e 1 32
e 1 35
e 1 37
e 1 44
e 1 46
e 1 47
e 1 48
e 1 49
e 1 50
e 1 51
e 1 52
e 1 53
e 1 54
e 1 55
e 1 56
e 1 62
e 1 63
e 1 64
e 1 65
e 1 66
e 1 67
e 1 68
e 1 69
e 1 70
e 1 71
e 1 73
e 1 74
e 1 75
e 1 76
e 1 77
e 1 78
e 1 79
e 1 80
e 1 81
e 1 82
e 1 91
e 1 96
e 1 99
e 1 100
e 2 4
e 2 9
e 2 10
e 2 13
e 2 14
e 2 25
e 2 46
e 2 47
e 2 48
e 2 49
e 2 50
e 2 51
e 2 52
e 2 53
e 2 54
e 2 55
e 2 56
e 2 62
e 2 63
e 2 64
e 2 65
e 2 66
e 2 67
e 2 68
e 2 69
e 2 70
e 2 71
e 2 73
e 2 74
e 2 75
e 2 76
e 2 77
e 2 78
e 2 79
e 2 80
e 2 81
e 2 82
e 2 87
e 2 96
e 2 98
e 2 99
e 2 100
e 3 4
e 3 6
e 3 9
e 3 11
e 3 12
e 3 13
e 3 28
e 3 33
e 3 34
e 3 49
e 3 50
e 3 51
e 3 52
e 3 53
e 3 54
e 3 55
e 3 64
e 3 66
e 3 69
e 3 70
e 3 71
e 3 72
e 3 74
e 3 75
e 3 76
e 3 77
e 3 78
e 3 79
e 3 80
e 3 81
e 3 82
e 3 83
e 3 85
e 3 90
e 3 91
e 3 100
e 4 9
e 4 11
e 4 13
e 4 25
e 4 33
e 4 35
e 4 49
e 4 50
e 4 51
e 4 52
e 4 53
e 4 54
e 4 55
e 4 56
e 4 57
e 4 58
e 4 59
e 4 60
e 4 61
e 4 62
e 4 77
e 4 78
e 4 79
e 4 80
e 4 81
e 4 82
e 4 83
e 4 85
e 4 88
e 4 91
e 4 92
e 4 94
e 4 100
e 5 9
e 5 10
e 5 27
e 5 29
e 5 30
e 5 34
e 5 46
e 5 48
e 5 49
e 5 51
e 5 53
e 5 57
e 5 63
e 5 67
e 5 70
e 5 72
e 5 80
e 5 86
e 5 92
e 5 97
e 5 98
e 6 29
e 6 34
e 6 36
e 6 44
e 6 47
e 6 48
e 6 49
e 6 51
e 6 52
e 6 54
e 6 56
e 6 65
e 6 75
e 6 81
e 6 83
e 6 84
e 6 85
e 6 86
e 6 87
e 6 88
e 6 90
e 6 91
e 6 92
e 6 98
e 6 99
e 6 100
e 7 11
e 7 12
e 7 13
e 7 29
e 7 48
e 7 49
e 7 50
e 7 53
e 7 59
e 7 67
e 7 74
e 7 75
e 7 76
e 7 81
e 7 82
e 7 83
e 7 86
e 7 87
e 7 89
e 7 90
e 7 92
e 8 12
e 8 28
e 8 33
e 8 34
e 8 44
e 8 46
e 8 47
e 8 48
e 8 49
e 8 50
e 8 51
e 8 52
e 8 53
e 8 54
e 8 55
e 8 56
e 8 57
e 8 58
e 8 59
e 8 60
e 8 61
e 8 62
e 8 63
e 8 66
e 8 67
e 8 68
e 8 69
e 8 76
e 8 77
e 8 84
e 8 87
e 8 89
e 8 95
e 8 97
e 8 98
e 8 99
e 9 24
e 9 28
e 9 29
e 9 30
e 9 31
e 9 32
e 9 33
e 9 34
e 9 35
e 9 36
e 9 37
e 9 48
e 9 49
e 9 50
e 9 51
e 9 52
e 9 53
e 9 54
e 9 55
e 9 56
e 9 57
e 9 58
e 9 59
e 9 60
e 9 61
e 9 62
e 9 63
e 9 65
e 9 66
e 9 67
e 9 68
e 9 89
e 9 90
e 9 97
e 9 98
e 9 99
e 10 27
e 10 28
e 10 29
e 10 30
e 10 31
e 10 32
e 10 33
e 10 34
e 10 35
e 10 36
e 10 37
e 10 47
e 10 48
e 10 49
e 10 50
e 10 51
e 10 52
e 10 53
e 10 54
e 10 55
e 10 56
e 10 57
e 10 58
e 10 59
e 10 60
e 10 61
e 10 62
e 10 63
e 10 65
e 10 66
e 10 67
e 10 68
e 10 90
e 10 93
e 10 94
e 10 95
e 10 96
e 10 97
e 10 98
e 10 99
e 10 100
e 11 28
e 11 29
e 11 30
e 11 31
e 11 32
e 11 33
e 11 34
e 11 35
e 11 36
e 11 37
e 11 45
e 11 48
e 11 49
e 11 50
e 11 51
e 11 52
e 11 53
e 11 54
e 11 55
e 11 56
e 11 57
e 11 58
e 11 59
e 11 60
e 11 61
e 11 62
e 11 63
e 11 65
e 11 66
e 11 67
e 11 68
e 11 90
e 11 93
e 11 95
e 11 96
e 11 97
e 11 98
e 11 99
e 12 28
e 12 29
e 12 30
e 12 31
e 12 32
e 12 33
e 12 34
e 12 35
e 12 36
e 12 37
e 12 44
e 12 46
e 12 48
e 12 49
e 12 50
e 12 51
e 12 52
e 12 53
e 12 54
e 12 55
e 12 56
e 12 57
e 12 58
e 12 59
e 12 60
e 12 61
e 12 62
e 12 65
e 12 66
e 12 95
e 12 96
e 12 97
e 12 98
e 12 99
e 12 100
e 13 25
e 13 26
e 13 28
e 13 29
e 13 30
e 13 39
e 13 53
e 13 65
e 13 66
e 13 95
e 13 96
e 13 97
e 13 98
e 13 99
e 13 100
e 14 25
e 14 28
e 14 29
e 14 30
e 14 31
e 14 32
e 14 33
e 14 34
e 14 35
e 14 36
e 14 37
e 14 38
e 14 39
e 14 40
e 14 41
e 14 42
e 14 43
e 14 65
e 14 66
e 14 72
e 14 95
e 14 96
e 14 97
e 14 98
e 14 99
e 15 25
e 15 26
e 15 28
e 15 29
e 15 30
e 15 31
e 15 32
e 15 33
e 15 34
e 15 35
e 15 36
e 15 37
e 15 38
e 15 39
e 15 40
e 15 41
e 15 42
e 15 43
e 15 65
e 15 66
e 15 95
e 15 96
e 15 97
e 15 98
e 15 99
e 16 25
e 16 28
e 16 29
e 16 30
e 16 31
e 16 32
e 16 33
e 16 34
e 16 35
e 16 36
e 16 37
e 16 38
e 16 39
e 16 40
e 16 41
e 16 42
e 16 43
e 16 65
e 16 66
e 16 94
e 17 25
e 17 28
e 17 29
e 17 30
e 17 31
e 17 32
e 17 33
e 17 34
e 17 35
e 17 36
e 17 37
e 17 38
e 17 39
e 17 40
e 17 41
e 17 42
e 17 43
e 17 65
e 17 66
e 17 71
e 18 25
e 18 26
e 18 28
e 18 29
e 18 30
e 18 31
e 18 32
e 18 33
e 18 34
e 18 35
e 18 36
e 18 37
e 18 38
e 18 39
e 18 40
e 18 41
e 18 42
e 18 43
e 18 65
e 18 66
e 19 25
e 19 26
e 19 28
e 19 29
e 19 30
e 19 31
e 19 32
e 19 33
e 19 34
e 19 35
e 19 36
e 19 37
e 19 38
e 19 39
e 19 41
e 19 42
e 19 43
e 19 44
e 19 45
e 19 46
e 19 47
e 19 48
e 19 49
e 19 50
e 19 51
e 19 52
e 19 53
e 19 54
e 19 55
e 19 56
e 19 57
e 19 58
e 19 59
e 19 60
e 19 61
e 19 62
e 19 65
e 19 66
e 20 25
e 20 26
e 20 28
e 20 29
e 20 30
e 20 31
e 20 34
e 20 35
e 20 36
e 20 37
e 20 38
e 20 52
e 20 53
e 20 54
e 20 56
e 20 57
e 20 58
e 20 60
e 20 61
e 20 62
e 20 63
e 20 64
e 20 65
e 20 82
e 20 99
e 21 25
e 21 26
e 21 28
e 21 29
e 21 30
e 21 31
e 21 32
e 21 33
e 21 34
e 21 35
e 21 36
e 21 37
e 21 38
e 21 52
e 21 53
e 21 54
e 21 55
e 21 56
e 21 57
e 21 58
e 21 60
e 21 61
e 21 62
e 21 63
e 21 64
e 21 65
e 21 69
e 22 25
e 22 26
e 22 28
e 22 29
e 22 30
e 22 31
e 22 32
e 22 33
e 22 34
e 22 35
e 22 36
e 22 37
e 22 38
e 22 39
e 22 40
e 22 41
e 22 42
e 22 43
e 22 52
e 22 53
e 22 54
e 22 55
e 22 56
e 22 57
e 22 58
e 22 59
e 22 60
e 22 61
e 22 62
e 22 63
e 22 64
e 22 65
e 22 66
e 22 89
e 23 25
e 23 26
e 23 27
e 23 28
e 23 29
e 23 30
e 23 31
e 23 32
e 23 33
e 23 34
e 23 35
e 23 36
e 23 37
e 23 38
e 23 39
e 23 40
e 23 41
e 23 42
e 23 43
e 23 44
e 23 48
e 23 52
e 23 53
e 23 54
e 23 55
e 23 56
e 23 57
e 23 58
e 23 59
e 23 60
e 23 61
e 23 62
e 23 63
e 23 64
e 23 65
e 23 66
e 24 25
e 24 26
e 24 27
e 24 28
e 24 29
e 24 30
e 24 31
e 24 32
e 24 33
e 24 34
e 24 35
e 24 36
e 24 37
e 24 38
e 24 39
e 24 40
e 24 41
e 24 42
e 24 43
e 24 44
e 24 45
e 24 46
e 24 47
e 24 50
e 24 51
e 24 52
e 24 53
e 24 54
e 24 55
e 24 56
e 24 57
e 24 59
e 24 60
e 24 61
e 24 62
e 24 63
e 24 64
e 24 65
e 24 66
e 24 67
e 24 69
e 24 100
e 26 83
e 43 92
e 60 64
e 61 100
e 62 100
e 63 100
e 72 95
e 89 99
e 97 100
